n_res = 4;
rcap = [15, 15, 70, 58];
rtype = [1, 1, 2, 2];
n_tasks = 16;
modes = [ {1, 2}, {3, 4}, {5, 6}, {7, 8}, {9, 10}, {11, 12}, {13, 14}, {15, 16}, {17, 18}, {19, 20}, {21, 22}, {23, 24}, {25, 26}, {27, 28}, {29, 30}, {31, 32} ];
succ = [ {4, 5, 14}, {6, 11}, {7, 8, 13}, {9, 10, 16}, {11, 16}, {10}, {9, 12, 14}, {9, 14, 16}, {15}, {12, 13}, {12, 13}, {15}, {15}, {}, {}, {} ];
n_opt = 32;
dur = [4, 9, 1, 8, 5, 7, 2, 2, 1, 6, 5, 10, 5, 9, 5, 10, 3, 6, 5, 10, 4, 9, 3, 7, 8, 9, 1, 4, 5, 6, 5, 6];
rreq = [|  5,  4,  7,  7,  7,  5,  7,  9,  8,  7,  5,  2,  7,  6,  9,  7,  3,  3,  7,  5,  3,  2,  9,  5,  6,  3,  3,  2, 10,  9,  7,  6
        |  2,  1,  7,  6,  3,  2,  7,  8,  6,  3,  5,  1,  6,  2,  8,  5,  9,  4,  6,  5,  6,  4,  9,  9,  4,  2, 10,  9,  4,  4,  7,  4
        |  2,  1, 10,  5,  8,  2,  6,  6,  3,  3,  3,  2,  4,  2,  9,  3,  9,  7,  7,  6,  6,  3,  5,  1,  4,  4,  9,  4,  7,  7,  8,  4
        |  7,  2,  4,  2,  5,  4,  5,  4,  3,  1,  7,  5,  5,  2,  9,  4,  3,  1,  4,  4,  4,  4,  6,  4,  3,  2,  5,  4,  3,  2,  7,  6 |];
